Configuration:
CPXPARAM_Advance=1
CPXPARAM_Barrier_Algorithm=0
CPXPARAM_Barrier_ColNonzeros=0
CPXPARAM_Barrier_Crossover=0
CPXPARAM_Barrier_Limits_Corrections=-1
CPXPARAM_Barrier_Ordering=0
CPXPARAM_Barrier_StartAlg=1
CPXPARAM_Emphasis_MIP=2
CPXPARAM_Emphasis_Memory=0
CPXPARAM_Emphasis_Numerical=0
CPXPARAM_Feasopt_Mode=0
CPXPARAM_LPMethod=0
CPXPARAM_MIP_Cuts_Cliques=0
CPXPARAM_MIP_Cuts_Covers=0
CPXPARAM_MIP_Cuts_Disjunctive=0
CPXPARAM_MIP_Cuts_FlowCovers=0
CPXPARAM_MIP_Cuts_GUBCovers=0
CPXPARAM_MIP_Cuts_Gomory=0
CPXPARAM_MIP_Cuts_Implied=0
CPXPARAM_MIP_Cuts_MIRCut=0
CPXPARAM_MIP_Cuts_PathCut=0
CPXPARAM_MIP_Limits_AggForCut=3
CPXPARAM_MIP_Limits_CutPasses=0
CPXPARAM_MIP_Limits_CutsFactor=-1
CPXPARAM_MIP_Limits_GomoryCand=50
CPXPARAM_MIP_Limits_GomoryPass=0
CPXPARAM_MIP_Limits_Nodes=9223372036800000000
CPXPARAM_MIP_Limits_ProbeTime=1e+75
CPXPARAM_MIP_Limits_RepairTries=0
CPXPARAM_MIP_Limits_StrongCand=10
CPXPARAM_MIP_Limits_StrongIt=0
CPXPARAM_MIP_OrderType=0
CPXPARAM_MIP_Strategy_BBInterval=7
CPXPARAM_MIP_Strategy_Branch=0
CPXPARAM_MIP_Strategy_Dive=0
CPXPARAM_MIP_Strategy_File=1
CPXPARAM_MIP_Strategy_HeuristicFreq=0
CPXPARAM_MIP_Strategy_LBHeur=0
CPXPARAM_MIP_Strategy_NodeSelect=1
CPXPARAM_MIP_Strategy_Order=1
CPXPARAM_MIP_Strategy_PresolveNode=0
CPXPARAM_MIP_Strategy_Probe=0
CPXPARAM_MIP_Strategy_RINSHeur=0
CPXPARAM_MIP_Strategy_StartAlgorithm=0
CPXPARAM_MIP_Strategy_SubAlgorithm=0
CPXPARAM_MIP_Strategy_VariableSelect=0
CPXPARAM_Network_NetFind=2
CPXPARAM_Network_Pricing=0
CPXPARAM_Parallel=1
CPXPARAM_Preprocessing_Aggregator=-1
CPXPARAM_Preprocessing_BoundStrength=-1
CPXPARAM_Preprocessing_CoeffReduce=-1
CPXPARAM_Preprocessing_Dependency=-1
CPXPARAM_Preprocessing_Dual=0
CPXPARAM_Preprocessing_Fill=10
CPXPARAM_Preprocessing_NumPass=-1
CPXPARAM_Preprocessing_Presolve=1
CPXPARAM_Preprocessing_QPMakePSD=1
CPXPARAM_Preprocessing_Reduce=3
CPXPARAM_Preprocessing_Relax=-1
CPXPARAM_Preprocessing_RepeatPresolve=-1
CPXPARAM_Preprocessing_Symmetry=-1
CPXPARAM_Read_Scale=0
CPXPARAM_Sifting_Algorithm=0
CPXPARAM_Simplex_Crash=1
CPXPARAM_Simplex_DGradient=0
CPXPARAM_Simplex_Limits_Perturbation=0
CPXPARAM_Simplex_Limits_Singularity=10
CPXPARAM_Simplex_PGradient=0
CPXPARAM_Simplex_Pricing=0
CPXPARAM_Simplex_Refactor=0
ObjectiveValue=7.18
Gap=7.18
UpperBound=181
LowerBound=168
SolverRuntimeSeconds=10.0054
TimeEvaluated=1154
MipStartUsed=1
UsedMipStartId=3
ProducedMipStart=0
EndConfiguration
Configuration:
CPXPARAM_Advance=1
CPXPARAM_Barrier_Algorithm=0
CPXPARAM_Barrier_ColNonzeros=0
CPXPARAM_Barrier_Crossover=0
CPXPARAM_Barrier_Limits_Corrections=-1
CPXPARAM_Barrier_Ordering=0
CPXPARAM_Barrier_StartAlg=1
CPXPARAM_Emphasis_MIP=2
CPXPARAM_Emphasis_Memory=0
CPXPARAM_Emphasis_Numerical=0
CPXPARAM_Feasopt_Mode=0
CPXPARAM_LPMethod=0
CPXPARAM_MIP_Cuts_Cliques=0
CPXPARAM_MIP_Cuts_Covers=0
CPXPARAM_MIP_Cuts_Disjunctive=0
CPXPARAM_MIP_Cuts_FlowCovers=0
CPXPARAM_MIP_Cuts_GUBCovers=0
CPXPARAM_MIP_Cuts_Gomory=0
CPXPARAM_MIP_Cuts_Implied=0
CPXPARAM_MIP_Cuts_MIRCut=0
CPXPARAM_MIP_Cuts_PathCut=0
CPXPARAM_MIP_Limits_AggForCut=3
CPXPARAM_MIP_Limits_CutPasses=0
CPXPARAM_MIP_Limits_CutsFactor=-1
CPXPARAM_MIP_Limits_GomoryCand=50
CPXPARAM_MIP_Limits_GomoryPass=0
CPXPARAM_MIP_Limits_Nodes=9223372036800000000
CPXPARAM_MIP_Limits_ProbeTime=1e+75
CPXPARAM_MIP_Limits_RepairTries=0
CPXPARAM_MIP_Limits_StrongCand=10
CPXPARAM_MIP_Limits_StrongIt=0
CPXPARAM_MIP_OrderType=0
CPXPARAM_MIP_Strategy_BBInterval=7
CPXPARAM_MIP_Strategy_Branch=0
CPXPARAM_MIP_Strategy_Dive=0
CPXPARAM_MIP_Strategy_File=1
CPXPARAM_MIP_Strategy_HeuristicFreq=0
CPXPARAM_MIP_Strategy_LBHeur=0
CPXPARAM_MIP_Strategy_NodeSelect=1
CPXPARAM_MIP_Strategy_Order=1
CPXPARAM_MIP_Strategy_PresolveNode=0
CPXPARAM_MIP_Strategy_Probe=0
CPXPARAM_MIP_Strategy_RINSHeur=0
CPXPARAM_MIP_Strategy_StartAlgorithm=0
CPXPARAM_MIP_Strategy_SubAlgorithm=0
CPXPARAM_MIP_Strategy_VariableSelect=0
CPXPARAM_Network_NetFind=2
CPXPARAM_Network_Pricing=0
CPXPARAM_Parallel=1
CPXPARAM_Preprocessing_Aggregator=-1
CPXPARAM_Preprocessing_BoundStrength=-1
CPXPARAM_Preprocessing_CoeffReduce=-1
CPXPARAM_Preprocessing_Dependency=-1
CPXPARAM_Preprocessing_Dual=-1
CPXPARAM_Preprocessing_Fill=10
CPXPARAM_Preprocessing_NumPass=-1
CPXPARAM_Preprocessing_Presolve=1
CPXPARAM_Preprocessing_QPMakePSD=1
CPXPARAM_Preprocessing_Reduce=3
CPXPARAM_Preprocessing_Relax=-1
CPXPARAM_Preprocessing_RepeatPresolve=-1
CPXPARAM_Preprocessing_Symmetry=-1
CPXPARAM_Read_Scale=0
CPXPARAM_Sifting_Algorithm=0
CPXPARAM_Simplex_Crash=1
CPXPARAM_Simplex_DGradient=0
CPXPARAM_Simplex_Limits_Perturbation=0
CPXPARAM_Simplex_Limits_Singularity=10
CPXPARAM_Simplex_PGradient=0
CPXPARAM_Simplex_Pricing=0
CPXPARAM_Simplex_Refactor=0
ObjectiveValue=7.18
Gap=7.18
UpperBound=181
LowerBound=168
SolverRuntimeSeconds=10.0048
TimeEvaluated=1164
MipStartUsed=1
UsedMipStartId=3
ProducedMipStart=0
EndConfiguration
Configuration:
CPXPARAM_Advance=1
CPXPARAM_Barrier_Algorithm=0
CPXPARAM_Barrier_ColNonzeros=0
CPXPARAM_Barrier_Crossover=0
CPXPARAM_Barrier_Limits_Corrections=-1
CPXPARAM_Barrier_Ordering=0
CPXPARAM_Barrier_StartAlg=1
CPXPARAM_Emphasis_MIP=2
CPXPARAM_Emphasis_Memory=0
CPXPARAM_Emphasis_Numerical=0
CPXPARAM_Feasopt_Mode=0
CPXPARAM_LPMethod=0
CPXPARAM_MIP_Cuts_Cliques=0
CPXPARAM_MIP_Cuts_Covers=0
CPXPARAM_MIP_Cuts_Disjunctive=0
CPXPARAM_MIP_Cuts_FlowCovers=0
CPXPARAM_MIP_Cuts_GUBCovers=0
CPXPARAM_MIP_Cuts_Gomory=0
CPXPARAM_MIP_Cuts_Implied=0
CPXPARAM_MIP_Cuts_MIRCut=0
CPXPARAM_MIP_Cuts_PathCut=0
CPXPARAM_MIP_Limits_AggForCut=3
CPXPARAM_MIP_Limits_CutPasses=0
CPXPARAM_MIP_Limits_CutsFactor=-1
CPXPARAM_MIP_Limits_GomoryCand=50
CPXPARAM_MIP_Limits_GomoryPass=0
CPXPARAM_MIP_Limits_Nodes=9223372036800000000
CPXPARAM_MIP_Limits_ProbeTime=1e+75
CPXPARAM_MIP_Limits_RepairTries=0
CPXPARAM_MIP_Limits_StrongCand=10
CPXPARAM_MIP_Limits_StrongIt=0
CPXPARAM_MIP_OrderType=0
CPXPARAM_MIP_Strategy_BBInterval=7
CPXPARAM_MIP_Strategy_Branch=0
CPXPARAM_MIP_Strategy_Dive=0
CPXPARAM_MIP_Strategy_File=1
CPXPARAM_MIP_Strategy_HeuristicFreq=0
CPXPARAM_MIP_Strategy_LBHeur=0
CPXPARAM_MIP_Strategy_NodeSelect=1
CPXPARAM_MIP_Strategy_Order=1
CPXPARAM_MIP_Strategy_PresolveNode=0
CPXPARAM_MIP_Strategy_Probe=0
CPXPARAM_MIP_Strategy_RINSHeur=0
CPXPARAM_MIP_Strategy_StartAlgorithm=0
CPXPARAM_MIP_Strategy_SubAlgorithm=0
CPXPARAM_MIP_Strategy_VariableSelect=0
CPXPARAM_Network_NetFind=2
CPXPARAM_Network_Pricing=0
CPXPARAM_Parallel=1
CPXPARAM_Preprocessing_Aggregator=-1
CPXPARAM_Preprocessing_BoundStrength=-1
CPXPARAM_Preprocessing_CoeffReduce=-1
CPXPARAM_Preprocessing_Dependency=-1
CPXPARAM_Preprocessing_Dual=0
CPXPARAM_Preprocessing_Fill=10
CPXPARAM_Preprocessing_NumPass=-1
CPXPARAM_Preprocessing_Presolve=1
CPXPARAM_Preprocessing_QPMakePSD=1
CPXPARAM_Preprocessing_Reduce=3
CPXPARAM_Preprocessing_Relax=-1
CPXPARAM_Preprocessing_RepeatPresolve=-1
CPXPARAM_Preprocessing_Symmetry=-1
CPXPARAM_Read_Scale=0
CPXPARAM_Sifting_Algorithm=0
CPXPARAM_Simplex_Crash=1
CPXPARAM_Simplex_DGradient=0
CPXPARAM_Simplex_Limits_Perturbation=0
CPXPARAM_Simplex_Limits_Singularity=10
CPXPARAM_Simplex_PGradient=3
CPXPARAM_Simplex_Pricing=0
CPXPARAM_Simplex_Refactor=0
ObjectiveValue=7.18
Gap=7.18
UpperBound=181
LowerBound=168
SolverRuntimeSeconds=10.0027
TimeEvaluated=1174
MipStartUsed=1
UsedMipStartId=3
ProducedMipStart=0
EndConfiguration
Configuration:
CPXPARAM_Advance=1
CPXPARAM_Barrier_Algorithm=0
CPXPARAM_Barrier_ColNonzeros=0
CPXPARAM_Barrier_Crossover=0
CPXPARAM_Barrier_Limits_Corrections=-1
CPXPARAM_Barrier_Ordering=0
CPXPARAM_Barrier_StartAlg=1
CPXPARAM_Emphasis_MIP=0
CPXPARAM_Emphasis_Memory=0
CPXPARAM_Emphasis_Numerical=0
CPXPARAM_Feasopt_Mode=0
CPXPARAM_LPMethod=0
CPXPARAM_MIP_Cuts_Cliques=0
CPXPARAM_MIP_Cuts_Covers=0
CPXPARAM_MIP_Cuts_Disjunctive=0
CPXPARAM_MIP_Cuts_FlowCovers=0
CPXPARAM_MIP_Cuts_GUBCovers=0
CPXPARAM_MIP_Cuts_Gomory=0
CPXPARAM_MIP_Cuts_Implied=0
CPXPARAM_MIP_Cuts_MIRCut=0
CPXPARAM_MIP_Cuts_PathCut=0
CPXPARAM_MIP_Limits_AggForCut=3
CPXPARAM_MIP_Limits_CutPasses=0
CPXPARAM_MIP_Limits_CutsFactor=-1
CPXPARAM_MIP_Limits_GomoryCand=50
CPXPARAM_MIP_Limits_GomoryPass=0
CPXPARAM_MIP_Limits_Nodes=9223372036800000000
CPXPARAM_MIP_Limits_ProbeTime=1e+75
CPXPARAM_MIP_Limits_RepairTries=0
CPXPARAM_MIP_Limits_StrongCand=10
CPXPARAM_MIP_Limits_StrongIt=0
CPXPARAM_MIP_OrderType=0
CPXPARAM_MIP_Strategy_BBInterval=7
CPXPARAM_MIP_Strategy_Branch=0
CPXPARAM_MIP_Strategy_Dive=0
CPXPARAM_MIP_Strategy_File=1
CPXPARAM_MIP_Strategy_HeuristicFreq=0
CPXPARAM_MIP_Strategy_LBHeur=0
CPXPARAM_MIP_Strategy_NodeSelect=1
CPXPARAM_MIP_Strategy_Order=1
CPXPARAM_MIP_Strategy_PresolveNode=0
CPXPARAM_MIP_Strategy_Probe=0
CPXPARAM_MIP_Strategy_RINSHeur=0
CPXPARAM_MIP_Strategy_StartAlgorithm=0
CPXPARAM_MIP_Strategy_SubAlgorithm=0
CPXPARAM_MIP_Strategy_VariableSelect=0
CPXPARAM_Network_NetFind=2
CPXPARAM_Network_Pricing=0
CPXPARAM_Parallel=1
CPXPARAM_Preprocessing_Aggregator=-1
CPXPARAM_Preprocessing_BoundStrength=-1
CPXPARAM_Preprocessing_CoeffReduce=-1
CPXPARAM_Preprocessing_Dependency=-1
CPXPARAM_Preprocessing_Dual=0
CPXPARAM_Preprocessing_Fill=10
CPXPARAM_Preprocessing_NumPass=-1
CPXPARAM_Preprocessing_Presolve=1
CPXPARAM_Preprocessing_QPMakePSD=1
CPXPARAM_Preprocessing_Reduce=3
CPXPARAM_Preprocessing_Relax=-1
CPXPARAM_Preprocessing_RepeatPresolve=-1
CPXPARAM_Preprocessing_Symmetry=-1
CPXPARAM_Read_Scale=0
CPXPARAM_Sifting_Algorithm=0
CPXPARAM_Simplex_Crash=1
CPXPARAM_Simplex_DGradient=0
CPXPARAM_Simplex_Limits_Perturbation=0
CPXPARAM_Simplex_Limits_Singularity=10
CPXPARAM_Simplex_PGradient=0
CPXPARAM_Simplex_Pricing=0
CPXPARAM_Simplex_Refactor=0
ObjectiveValue=8.01
Gap=8.01
UpperBound=181
LowerBound=166.5
SolverRuntimeSeconds=10.0058
TimeEvaluated=1184
MipStartUsed=1
UsedMipStartId=3
ProducedMipStart=0
EndConfiguration
Configuration:
CPXPARAM_Advance=1
CPXPARAM_Barrier_Algorithm=0
CPXPARAM_Barrier_ColNonzeros=0
CPXPARAM_Barrier_Crossover=0
CPXPARAM_Barrier_Limits_Corrections=-1
CPXPARAM_Barrier_Ordering=0
CPXPARAM_Barrier_StartAlg=1
CPXPARAM_Emphasis_MIP=2
CPXPARAM_Emphasis_Memory=0
CPXPARAM_Emphasis_Numerical=0
CPXPARAM_Feasopt_Mode=0
CPXPARAM_LPMethod=0
CPXPARAM_MIP_Cuts_Cliques=0
CPXPARAM_MIP_Cuts_Covers=0
CPXPARAM_MIP_Cuts_Disjunctive=0
CPXPARAM_MIP_Cuts_FlowCovers=-1
CPXPARAM_MIP_Cuts_GUBCovers=0
CPXPARAM_MIP_Cuts_Gomory=0
CPXPARAM_MIP_Cuts_Implied=0
CPXPARAM_MIP_Cuts_MIRCut=0
CPXPARAM_MIP_Cuts_PathCut=0
CPXPARAM_MIP_Limits_AggForCut=3
CPXPARAM_MIP_Limits_CutPasses=0
CPXPARAM_MIP_Limits_CutsFactor=-1
CPXPARAM_MIP_Limits_GomoryCand=50
CPXPARAM_MIP_Limits_GomoryPass=0
CPXPARAM_MIP_Limits_Nodes=9223372036800000000
CPXPARAM_MIP_Limits_ProbeTime=1e+75
CPXPARAM_MIP_Limits_RepairTries=0
CPXPARAM_MIP_Limits_StrongCand=10
CPXPARAM_MIP_Limits_StrongIt=0
CPXPARAM_MIP_OrderType=0
CPXPARAM_MIP_Strategy_BBInterval=7
CPXPARAM_MIP_Strategy_Branch=0
CPXPARAM_MIP_Strategy_Dive=0
CPXPARAM_MIP_Strategy_File=1
CPXPARAM_MIP_Strategy_HeuristicFreq=0
CPXPARAM_MIP_Strategy_LBHeur=0
CPXPARAM_MIP_Strategy_NodeSelect=1
CPXPARAM_MIP_Strategy_Order=1
CPXPARAM_MIP_Strategy_PresolveNode=0
CPXPARAM_MIP_Strategy_Probe=0
CPXPARAM_MIP_Strategy_RINSHeur=0
CPXPARAM_MIP_Strategy_StartAlgorithm=0
CPXPARAM_MIP_Strategy_SubAlgorithm=0
CPXPARAM_MIP_Strategy_VariableSelect=0
CPXPARAM_Network_NetFind=2
CPXPARAM_Network_Pricing=0
CPXPARAM_Parallel=1
CPXPARAM_Preprocessing_Aggregator=-1
CPXPARAM_Preprocessing_BoundStrength=-1
CPXPARAM_Preprocessing_CoeffReduce=-1
CPXPARAM_Preprocessing_Dependency=-1
CPXPARAM_Preprocessing_Dual=0
CPXPARAM_Preprocessing_Fill=10
CPXPARAM_Preprocessing_NumPass=-1
CPXPARAM_Preprocessing_Presolve=1
CPXPARAM_Preprocessing_QPMakePSD=1
CPXPARAM_Preprocessing_Reduce=3
CPXPARAM_Preprocessing_Relax=-1
CPXPARAM_Preprocessing_RepeatPresolve=-1
CPXPARAM_Preprocessing_Symmetry=-1
CPXPARAM_Read_Scale=0
CPXPARAM_Sifting_Algorithm=0
CPXPARAM_Simplex_Crash=1
CPXPARAM_Simplex_DGradient=0
CPXPARAM_Simplex_Limits_Perturbation=0
CPXPARAM_Simplex_Limits_Singularity=10
CPXPARAM_Simplex_PGradient=0
CPXPARAM_Simplex_Pricing=0
CPXPARAM_Simplex_Refactor=0
ObjectiveValue=7.18
Gap=7.18
UpperBound=181
LowerBound=168
SolverRuntimeSeconds=10.0046
TimeEvaluated=1194
MipStartUsed=1
UsedMipStartId=3
ProducedMipStart=0
EndConfiguration
Configuration:
CPXPARAM_Advance=1
CPXPARAM_Barrier_Algorithm=0
CPXPARAM_Barrier_ColNonzeros=0
CPXPARAM_Barrier_Crossover=0
CPXPARAM_Barrier_Limits_Corrections=-1
CPXPARAM_Barrier_Ordering=0
CPXPARAM_Barrier_StartAlg=1
CPXPARAM_Emphasis_MIP=2
CPXPARAM_Emphasis_Memory=0
CPXPARAM_Emphasis_Numerical=0
CPXPARAM_Feasopt_Mode=0
CPXPARAM_LPMethod=0
CPXPARAM_MIP_Cuts_Cliques=0
CPXPARAM_MIP_Cuts_Covers=0
CPXPARAM_MIP_Cuts_Disjunctive=0
CPXPARAM_MIP_Cuts_FlowCovers=0
CPXPARAM_MIP_Cuts_GUBCovers=0
CPXPARAM_MIP_Cuts_Gomory=0
CPXPARAM_MIP_Cuts_Implied=0
CPXPARAM_MIP_Cuts_MIRCut=0
CPXPARAM_MIP_Cuts_PathCut=0
CPXPARAM_MIP_Limits_AggForCut=3
CPXPARAM_MIP_Limits_CutPasses=0
CPXPARAM_MIP_Limits_CutsFactor=-1
CPXPARAM_MIP_Limits_GomoryCand=50
CPXPARAM_MIP_Limits_GomoryPass=0
CPXPARAM_MIP_Limits_Nodes=9223372036800000000
CPXPARAM_MIP_Limits_ProbeTime=1e+75
CPXPARAM_MIP_Limits_RepairTries=0
CPXPARAM_MIP_Limits_StrongCand=10
CPXPARAM_MIP_Limits_StrongIt=0
CPXPARAM_MIP_OrderType=0
CPXPARAM_MIP_Strategy_BBInterval=7
CPXPARAM_MIP_Strategy_Branch=0
CPXPARAM_MIP_Strategy_Dive=0
CPXPARAM_MIP_Strategy_File=1
CPXPARAM_MIP_Strategy_HeuristicFreq=0
CPXPARAM_MIP_Strategy_LBHeur=0
CPXPARAM_MIP_Strategy_NodeSelect=1
CPXPARAM_MIP_Strategy_Order=1
CPXPARAM_MIP_Strategy_PresolveNode=0
CPXPARAM_MIP_Strategy_Probe=0
CPXPARAM_MIP_Strategy_RINSHeur=0
CPXPARAM_MIP_Strategy_StartAlgorithm=0
CPXPARAM_MIP_Strategy_SubAlgorithm=0
CPXPARAM_MIP_Strategy_VariableSelect=0
CPXPARAM_Network_NetFind=2
CPXPARAM_Network_Pricing=0
CPXPARAM_Parallel=1
CPXPARAM_Preprocessing_Aggregator=-1
CPXPARAM_Preprocessing_BoundStrength=-1
CPXPARAM_Preprocessing_CoeffReduce=-1
CPXPARAM_Preprocessing_Dependency=-1
CPXPARAM_Preprocessing_Dual=0
CPXPARAM_Preprocessing_Fill=10
CPXPARAM_Preprocessing_NumPass=-1
CPXPARAM_Preprocessing_Presolve=1
CPXPARAM_Preprocessing_QPMakePSD=1
CPXPARAM_Preprocessing_Reduce=3
CPXPARAM_Preprocessing_Relax=-1
CPXPARAM_Preprocessing_RepeatPresolve=-1
CPXPARAM_Preprocessing_Symmetry=-1
CPXPARAM_Read_Scale=0
CPXPARAM_Sifting_Algorithm=0
CPXPARAM_Simplex_Crash=1
CPXPARAM_Simplex_DGradient=0
CPXPARAM_Simplex_Limits_Perturbation=0
CPXPARAM_Simplex_Limits_Singularity=10
CPXPARAM_Simplex_PGradient=-1
CPXPARAM_Simplex_Pricing=0
CPXPARAM_Simplex_Refactor=0
ObjectiveValue=7.92
Gap=7.92
UpperBound=181
LowerBound=166.667
SolverRuntimeSeconds=10.0046
TimeEvaluated=1204
MipStartUsed=1
UsedMipStartId=3
ProducedMipStart=0
EndConfiguration
Configuration:
CPXPARAM_Advance=1
CPXPARAM_Barrier_Algorithm=0
CPXPARAM_Barrier_ColNonzeros=0
CPXPARAM_Barrier_Crossover=0
CPXPARAM_Barrier_Limits_Corrections=-1
CPXPARAM_Barrier_Ordering=0
CPXPARAM_Barrier_StartAlg=1
CPXPARAM_Emphasis_MIP=2
CPXPARAM_Emphasis_Memory=0
CPXPARAM_Emphasis_Numerical=0
CPXPARAM_Feasopt_Mode=0
CPXPARAM_LPMethod=0
CPXPARAM_MIP_Cuts_Cliques=0
CPXPARAM_MIP_Cuts_Covers=0
CPXPARAM_MIP_Cuts_Disjunctive=0
CPXPARAM_MIP_Cuts_FlowCovers=0
CPXPARAM_MIP_Cuts_GUBCovers=0
CPXPARAM_MIP_Cuts_Gomory=0
CPXPARAM_MIP_Cuts_Implied=0
CPXPARAM_MIP_Cuts_MIRCut=0
CPXPARAM_MIP_Cuts_PathCut=-1
CPXPARAM_MIP_Limits_AggForCut=3
CPXPARAM_MIP_Limits_CutPasses=0
CPXPARAM_MIP_Limits_CutsFactor=-1
CPXPARAM_MIP_Limits_GomoryCand=50
CPXPARAM_MIP_Limits_GomoryPass=0
CPXPARAM_MIP_Limits_Nodes=9223372036800000000
CPXPARAM_MIP_Limits_ProbeTime=1e+75
CPXPARAM_MIP_Limits_RepairTries=0
CPXPARAM_MIP_Limits_StrongCand=10
CPXPARAM_MIP_Limits_StrongIt=0
CPXPARAM_MIP_OrderType=0
CPXPARAM_MIP_Strategy_BBInterval=7
CPXPARAM_MIP_Strategy_Branch=0
CPXPARAM_MIP_Strategy_Dive=0
CPXPARAM_MIP_Strategy_File=1
CPXPARAM_MIP_Strategy_HeuristicFreq=0
CPXPARAM_MIP_Strategy_LBHeur=0
CPXPARAM_MIP_Strategy_NodeSelect=1
CPXPARAM_MIP_Strategy_Order=1
CPXPARAM_MIP_Strategy_PresolveNode=0
CPXPARAM_MIP_Strategy_Probe=0
CPXPARAM_MIP_Strategy_RINSHeur=0
CPXPARAM_MIP_Strategy_StartAlgorithm=0
CPXPARAM_MIP_Strategy_SubAlgorithm=0
CPXPARAM_MIP_Strategy_VariableSelect=0
CPXPARAM_Network_NetFind=2
CPXPARAM_Network_Pricing=0
CPXPARAM_Parallel=1
CPXPARAM_Preprocessing_Aggregator=-1
CPXPARAM_Preprocessing_BoundStrength=-1
CPXPARAM_Preprocessing_CoeffReduce=-1
CPXPARAM_Preprocessing_Dependency=-1
CPXPARAM_Preprocessing_Dual=0
CPXPARAM_Preprocessing_Fill=10
CPXPARAM_Preprocessing_NumPass=-1
CPXPARAM_Preprocessing_Presolve=1
CPXPARAM_Preprocessing_QPMakePSD=1
CPXPARAM_Preprocessing_Reduce=3
CPXPARAM_Preprocessing_Relax=-1
CPXPARAM_Preprocessing_RepeatPresolve=-1
CPXPARAM_Preprocessing_Symmetry=-1
CPXPARAM_Read_Scale=0
CPXPARAM_Sifting_Algorithm=0
CPXPARAM_Simplex_Crash=1
CPXPARAM_Simplex_DGradient=0
CPXPARAM_Simplex_Limits_Perturbation=0
CPXPARAM_Simplex_Limits_Singularity=10
CPXPARAM_Simplex_PGradient=0
CPXPARAM_Simplex_Pricing=0
CPXPARAM_Simplex_Refactor=0
ObjectiveValue=7.58
Gap=7.58
UpperBound=181
LowerBound=167.286
SolverRuntimeSeconds=10.0042
TimeEvaluated=1214
MipStartUsed=1
UsedMipStartId=3
ProducedMipStart=0
EndConfiguration
Configuration:
CPXPARAM_Advance=1
CPXPARAM_Barrier_Algorithm=0
CPXPARAM_Barrier_ColNonzeros=0
CPXPARAM_Barrier_Crossover=0
CPXPARAM_Barrier_Limits_Corrections=-1
CPXPARAM_Barrier_Ordering=0
CPXPARAM_Barrier_StartAlg=1
CPXPARAM_Emphasis_MIP=2
CPXPARAM_Emphasis_Memory=0
CPXPARAM_Emphasis_Numerical=0
CPXPARAM_Feasopt_Mode=0
CPXPARAM_LPMethod=0
CPXPARAM_MIP_Cuts_Cliques=0
CPXPARAM_MIP_Cuts_Covers=0
CPXPARAM_MIP_Cuts_Disjunctive=0
CPXPARAM_MIP_Cuts_FlowCovers=0
CPXPARAM_MIP_Cuts_GUBCovers=0
CPXPARAM_MIP_Cuts_Gomory=0
CPXPARAM_MIP_Cuts_Implied=0
CPXPARAM_MIP_Cuts_MIRCut=-1
CPXPARAM_MIP_Cuts_PathCut=0
CPXPARAM_MIP_Limits_AggForCut=3
CPXPARAM_MIP_Limits_CutPasses=0
CPXPARAM_MIP_Limits_CutsFactor=-1
CPXPARAM_MIP_Limits_GomoryCand=50
CPXPARAM_MIP_Limits_GomoryPass=0
CPXPARAM_MIP_Limits_Nodes=9223372036800000000
CPXPARAM_MIP_Limits_ProbeTime=1e+75
CPXPARAM_MIP_Limits_RepairTries=0
CPXPARAM_MIP_Limits_StrongCand=10
CPXPARAM_MIP_Limits_StrongIt=0
CPXPARAM_MIP_OrderType=0
CPXPARAM_MIP_Strategy_BBInterval=7
CPXPARAM_MIP_Strategy_Branch=0
CPXPARAM_MIP_Strategy_Dive=0
CPXPARAM_MIP_Strategy_File=1
CPXPARAM_MIP_Strategy_HeuristicFreq=0
CPXPARAM_MIP_Strategy_LBHeur=0
CPXPARAM_MIP_Strategy_NodeSelect=1
CPXPARAM_MIP_Strategy_Order=1
CPXPARAM_MIP_Strategy_PresolveNode=0
CPXPARAM_MIP_Strategy_Probe=0
CPXPARAM_MIP_Strategy_RINSHeur=0
CPXPARAM_MIP_Strategy_StartAlgorithm=0
CPXPARAM_MIP_Strategy_SubAlgorithm=0
CPXPARAM_MIP_Strategy_VariableSelect=0
CPXPARAM_Network_NetFind=2
CPXPARAM_Network_Pricing=0
CPXPARAM_Parallel=1
CPXPARAM_Preprocessing_Aggregator=-1
CPXPARAM_Preprocessing_BoundStrength=-1
CPXPARAM_Preprocessing_CoeffReduce=-1
CPXPARAM_Preprocessing_Dependency=-1
CPXPARAM_Preprocessing_Dual=0
CPXPARAM_Preprocessing_Fill=10
CPXPARAM_Preprocessing_NumPass=-1
CPXPARAM_Preprocessing_Presolve=1
CPXPARAM_Preprocessing_QPMakePSD=1
CPXPARAM_Preprocessing_Reduce=3
CPXPARAM_Preprocessing_Relax=-1
CPXPARAM_Preprocessing_RepeatPresolve=-1
CPXPARAM_Preprocessing_Symmetry=-1
CPXPARAM_Read_Scale=0
CPXPARAM_Sifting_Algorithm=0
CPXPARAM_Simplex_Crash=1
CPXPARAM_Simplex_DGradient=0
CPXPARAM_Simplex_Limits_Perturbation=0
CPXPARAM_Simplex_Limits_Singularity=10
CPXPARAM_Simplex_PGradient=0
CPXPARAM_Simplex_Pricing=0
CPXPARAM_Simplex_Refactor=0
ObjectiveValue=8.13
Gap=8.13
UpperBound=181
LowerBound=166.279
SolverRuntimeSeconds=10.0276
TimeEvaluated=1224
MipStartUsed=1
UsedMipStartId=3
ProducedMipStart=0
EndConfiguration
Configuration:
CPXPARAM_Advance=1
CPXPARAM_Barrier_Algorithm=0
CPXPARAM_Barrier_ColNonzeros=0
CPXPARAM_Barrier_Crossover=0
CPXPARAM_Barrier_Limits_Corrections=-1
CPXPARAM_Barrier_Ordering=0
CPXPARAM_Barrier_StartAlg=1
CPXPARAM_Emphasis_MIP=2
CPXPARAM_Emphasis_Memory=0
CPXPARAM_Emphasis_Numerical=0
CPXPARAM_Feasopt_Mode=0
CPXPARAM_LPMethod=0
CPXPARAM_MIP_Cuts_Cliques=0
CPXPARAM_MIP_Cuts_Covers=0
CPXPARAM_MIP_Cuts_Disjunctive=0
CPXPARAM_MIP_Cuts_FlowCovers=0
CPXPARAM_MIP_Cuts_GUBCovers=0
CPXPARAM_MIP_Cuts_Gomory=0
CPXPARAM_MIP_Cuts_Implied=0
CPXPARAM_MIP_Cuts_MIRCut=0
CPXPARAM_MIP_Cuts_PathCut=0
CPXPARAM_MIP_Limits_AggForCut=3
CPXPARAM_MIP_Limits_CutPasses=0
CPXPARAM_MIP_Limits_CutsFactor=-1
CPXPARAM_MIP_Limits_GomoryCand=150
CPXPARAM_MIP_Limits_GomoryPass=0
CPXPARAM_MIP_Limits_Nodes=9223372036800000000
CPXPARAM_MIP_Limits_ProbeTime=1e+75
CPXPARAM_MIP_Limits_RepairTries=0
CPXPARAM_MIP_Limits_StrongCand=10
CPXPARAM_MIP_Limits_StrongIt=0
CPXPARAM_MIP_OrderType=0
CPXPARAM_MIP_Strategy_BBInterval=7
CPXPARAM_MIP_Strategy_Branch=0
CPXPARAM_MIP_Strategy_Dive=0
CPXPARAM_MIP_Strategy_File=1
CPXPARAM_MIP_Strategy_HeuristicFreq=0
CPXPARAM_MIP_Strategy_LBHeur=0
CPXPARAM_MIP_Strategy_NodeSelect=1
CPXPARAM_MIP_Strategy_Order=1
CPXPARAM_MIP_Strategy_PresolveNode=0
CPXPARAM_MIP_Strategy_Probe=0
CPXPARAM_MIP_Strategy_RINSHeur=0
CPXPARAM_MIP_Strategy_StartAlgorithm=0
CPXPARAM_MIP_Strategy_SubAlgorithm=0
CPXPARAM_MIP_Strategy_VariableSelect=0
CPXPARAM_Network_NetFind=2
CPXPARAM_Network_Pricing=0
CPXPARAM_Parallel=1
CPXPARAM_Preprocessing_Aggregator=-1
CPXPARAM_Preprocessing_BoundStrength=-1
CPXPARAM_Preprocessing_CoeffReduce=-1
CPXPARAM_Preprocessing_Dependency=-1
CPXPARAM_Preprocessing_Dual=0
CPXPARAM_Preprocessing_Fill=10
CPXPARAM_Preprocessing_NumPass=-1
CPXPARAM_Preprocessing_Presolve=1
CPXPARAM_Preprocessing_QPMakePSD=1
CPXPARAM_Preprocessing_Reduce=3
CPXPARAM_Preprocessing_Relax=-1
CPXPARAM_Preprocessing_RepeatPresolve=-1
CPXPARAM_Preprocessing_Symmetry=-1
CPXPARAM_Read_Scale=0
CPXPARAM_Sifting_Algorithm=0
CPXPARAM_Simplex_Crash=1
CPXPARAM_Simplex_DGradient=0
CPXPARAM_Simplex_Limits_Perturbation=0
CPXPARAM_Simplex_Limits_Singularity=10
CPXPARAM_Simplex_PGradient=0
CPXPARAM_Simplex_Pricing=0
CPXPARAM_Simplex_Refactor=0
ObjectiveValue=8.36
Gap=8.36
UpperBound=181
LowerBound=165.875
SolverRuntimeSeconds=10.0061
TimeEvaluated=1234
MipStartUsed=1
UsedMipStartId=3
ProducedMipStart=0
EndConfiguration
Configuration:
CPXPARAM_Advance=1
CPXPARAM_Barrier_Algorithm=0
CPXPARAM_Barrier_ColNonzeros=0
CPXPARAM_Barrier_Crossover=0
CPXPARAM_Barrier_Limits_Corrections=-1
CPXPARAM_Barrier_Ordering=0
CPXPARAM_Barrier_StartAlg=1
CPXPARAM_Emphasis_MIP=2
CPXPARAM_Emphasis_Memory=0
CPXPARAM_Emphasis_Numerical=0
CPXPARAM_Feasopt_Mode=0
CPXPARAM_LPMethod=0
CPXPARAM_MIP_Cuts_Cliques=0
CPXPARAM_MIP_Cuts_Covers=0
CPXPARAM_MIP_Cuts_Disjunctive=0
CPXPARAM_MIP_Cuts_FlowCovers=0
CPXPARAM_MIP_Cuts_GUBCovers=0
CPXPARAM_MIP_Cuts_Gomory=0
CPXPARAM_MIP_Cuts_Implied=0
CPXPARAM_MIP_Cuts_MIRCut=0
CPXPARAM_MIP_Cuts_PathCut=0
CPXPARAM_MIP_Limits_AggForCut=3
CPXPARAM_MIP_Limits_CutPasses=0
CPXPARAM_MIP_Limits_CutsFactor=-1
CPXPARAM_MIP_Limits_GomoryCand=50
CPXPARAM_MIP_Limits_GomoryPass=0
CPXPARAM_MIP_Limits_Nodes=9223372036800000000
CPXPARAM_MIP_Limits_ProbeTime=1e+75
CPXPARAM_MIP_Limits_RepairTries=0
CPXPARAM_MIP_Limits_StrongCand=10
CPXPARAM_MIP_Limits_StrongIt=0
CPXPARAM_MIP_OrderType=0
CPXPARAM_MIP_Strategy_BBInterval=7
CPXPARAM_MIP_Strategy_Branch=0
CPXPARAM_MIP_Strategy_Dive=0
CPXPARAM_MIP_Strategy_File=1
CPXPARAM_MIP_Strategy_HeuristicFreq=0
CPXPARAM_MIP_Strategy_LBHeur=0
CPXPARAM_MIP_Strategy_NodeSelect=0
CPXPARAM_MIP_Strategy_Order=1
CPXPARAM_MIP_Strategy_PresolveNode=0
CPXPARAM_MIP_Strategy_Probe=0
CPXPARAM_MIP_Strategy_RINSHeur=0
CPXPARAM_MIP_Strategy_StartAlgorithm=0
CPXPARAM_MIP_Strategy_SubAlgorithm=0
CPXPARAM_MIP_Strategy_VariableSelect=0
CPXPARAM_Network_NetFind=2
CPXPARAM_Network_Pricing=0
CPXPARAM_Parallel=1
CPXPARAM_Preprocessing_Aggregator=-1
CPXPARAM_Preprocessing_BoundStrength=-1
CPXPARAM_Preprocessing_CoeffReduce=-1
CPXPARAM_Preprocessing_Dependency=-1
CPXPARAM_Preprocessing_Dual=0
CPXPARAM_Preprocessing_Fill=10
CPXPARAM_Preprocessing_NumPass=-1
CPXPARAM_Preprocessing_Presolve=1
CPXPARAM_Preprocessing_QPMakePSD=1
CPXPARAM_Preprocessing_Reduce=3
CPXPARAM_Preprocessing_Relax=-1
CPXPARAM_Preprocessing_RepeatPresolve=-1
CPXPARAM_Preprocessing_Symmetry=-1
CPXPARAM_Read_Scale=0
CPXPARAM_Sifting_Algorithm=0
CPXPARAM_Simplex_Crash=1
CPXPARAM_Simplex_DGradient=0
CPXPARAM_Simplex_Limits_Perturbation=0
CPXPARAM_Simplex_Limits_Singularity=10
CPXPARAM_Simplex_PGradient=0
CPXPARAM_Simplex_Pricing=0
CPXPARAM_Simplex_Refactor=0
ObjectiveValue=9.94
Gap=9.94
UpperBound=181
LowerBound=163
SolverRuntimeSeconds=10.0027
TimeEvaluated=1244
MipStartUsed=1
UsedMipStartId=3
ProducedMipStart=0
EndConfiguration
Configuration:
CPXPARAM_Advance=1
CPXPARAM_Barrier_Algorithm=0
CPXPARAM_Barrier_ColNonzeros=0
CPXPARAM_Barrier_Crossover=0
CPXPARAM_Barrier_Limits_Corrections=-1
CPXPARAM_Barrier_Ordering=0
CPXPARAM_Barrier_StartAlg=1
CPXPARAM_Emphasis_MIP=2
CPXPARAM_Emphasis_Memory=0
CPXPARAM_Emphasis_Numerical=0
CPXPARAM_Feasopt_Mode=0
CPXPARAM_LPMethod=0
CPXPARAM_MIP_Cuts_Cliques=0
CPXPARAM_MIP_Cuts_Covers=0
CPXPARAM_MIP_Cuts_Disjunctive=0
CPXPARAM_MIP_Cuts_FlowCovers=0
CPXPARAM_MIP_Cuts_GUBCovers=0
CPXPARAM_MIP_Cuts_Gomory=-1
CPXPARAM_MIP_Cuts_Implied=0
CPXPARAM_MIP_Cuts_MIRCut=0
CPXPARAM_MIP_Cuts_PathCut=0
CPXPARAM_MIP_Limits_AggForCut=3
CPXPARAM_MIP_Limits_CutPasses=0
CPXPARAM_MIP_Limits_CutsFactor=-1
CPXPARAM_MIP_Limits_GomoryCand=50
CPXPARAM_MIP_Limits_GomoryPass=0
CPXPARAM_MIP_Limits_Nodes=9223372036800000000
CPXPARAM_MIP_Limits_ProbeTime=1e+75
CPXPARAM_MIP_Limits_RepairTries=0
CPXPARAM_MIP_Limits_StrongCand=10
CPXPARAM_MIP_Limits_StrongIt=0
CPXPARAM_MIP_OrderType=0
CPXPARAM_MIP_Strategy_BBInterval=7
CPXPARAM_MIP_Strategy_Branch=0
CPXPARAM_MIP_Strategy_Dive=0
CPXPARAM_MIP_Strategy_File=1
CPXPARAM_MIP_Strategy_HeuristicFreq=0
CPXPARAM_MIP_Strategy_LBHeur=0
CPXPARAM_MIP_Strategy_NodeSelect=1
CPXPARAM_MIP_Strategy_Order=1
CPXPARAM_MIP_Strategy_PresolveNode=0
CPXPARAM_MIP_Strategy_Probe=0
CPXPARAM_MIP_Strategy_RINSHeur=0
CPXPARAM_MIP_Strategy_StartAlgorithm=0
CPXPARAM_MIP_Strategy_SubAlgorithm=0
CPXPARAM_MIP_Strategy_VariableSelect=0
CPXPARAM_Network_NetFind=2
CPXPARAM_Network_Pricing=0
CPXPARAM_Parallel=1
CPXPARAM_Preprocessing_Aggregator=-1
CPXPARAM_Preprocessing_BoundStrength=-1
CPXPARAM_Preprocessing_CoeffReduce=-1
CPXPARAM_Preprocessing_Dependency=-1
CPXPARAM_Preprocessing_Dual=0
CPXPARAM_Preprocessing_Fill=10
CPXPARAM_Preprocessing_NumPass=-1
CPXPARAM_Preprocessing_Presolve=1
CPXPARAM_Preprocessing_QPMakePSD=1
CPXPARAM_Preprocessing_Reduce=3
CPXPARAM_Preprocessing_Relax=-1
CPXPARAM_Preprocessing_RepeatPresolve=-1
CPXPARAM_Preprocessing_Symmetry=-1
CPXPARAM_Read_Scale=0
CPXPARAM_Sifting_Algorithm=0
CPXPARAM_Simplex_Crash=1
CPXPARAM_Simplex_DGradient=0
CPXPARAM_Simplex_Limits_Perturbation=0
CPXPARAM_Simplex_Limits_Singularity=10
CPXPARAM_Simplex_PGradient=0
CPXPARAM_Simplex_Pricing=0
CPXPARAM_Simplex_Refactor=0
ObjectiveValue=8.61
Gap=8.61
UpperBound=181
LowerBound=165.417
SolverRuntimeSeconds=10.006
TimeEvaluated=1254
MipStartUsed=1
UsedMipStartId=3
ProducedMipStart=0
EndConfiguration
Configuration:
CPXPARAM_Advance=1
CPXPARAM_Barrier_Algorithm=0
CPXPARAM_Barrier_ColNonzeros=0
CPXPARAM_Barrier_Crossover=0
CPXPARAM_Barrier_Limits_Corrections=-1
CPXPARAM_Barrier_Ordering=0
CPXPARAM_Barrier_StartAlg=1
CPXPARAM_Emphasis_MIP=2
CPXPARAM_Emphasis_Memory=0
CPXPARAM_Emphasis_Numerical=0
CPXPARAM_Feasopt_Mode=0
CPXPARAM_LPMethod=0
CPXPARAM_MIP_Cuts_Cliques=0
CPXPARAM_MIP_Cuts_Covers=0
CPXPARAM_MIP_Cuts_Disjunctive=0
CPXPARAM_MIP_Cuts_FlowCovers=0
CPXPARAM_MIP_Cuts_GUBCovers=0
CPXPARAM_MIP_Cuts_Gomory=0
CPXPARAM_MIP_Cuts_Implied=0
CPXPARAM_MIP_Cuts_MIRCut=0
CPXPARAM_MIP_Cuts_PathCut=0
CPXPARAM_MIP_Limits_AggForCut=3
CPXPARAM_MIP_Limits_CutPasses=0
CPXPARAM_MIP_Limits_CutsFactor=-1
CPXPARAM_MIP_Limits_GomoryCand=10
CPXPARAM_MIP_Limits_GomoryPass=0
CPXPARAM_MIP_Limits_Nodes=9223372036800000000
CPXPARAM_MIP_Limits_ProbeTime=1e+75
CPXPARAM_MIP_Limits_RepairTries=0
CPXPARAM_MIP_Limits_StrongCand=10
CPXPARAM_MIP_Limits_StrongIt=0
CPXPARAM_MIP_OrderType=0
CPXPARAM_MIP_Strategy_BBInterval=7
CPXPARAM_MIP_Strategy_Branch=0
CPXPARAM_MIP_Strategy_Dive=0
CPXPARAM_MIP_Strategy_File=1
CPXPARAM_MIP_Strategy_HeuristicFreq=0
CPXPARAM_MIP_Strategy_LBHeur=0
CPXPARAM_MIP_Strategy_NodeSelect=1
CPXPARAM_MIP_Strategy_Order=1
CPXPARAM_MIP_Strategy_PresolveNode=0
CPXPARAM_MIP_Strategy_Probe=0
CPXPARAM_MIP_Strategy_RINSHeur=0
CPXPARAM_MIP_Strategy_StartAlgorithm=0
CPXPARAM_MIP_Strategy_SubAlgorithm=0
CPXPARAM_MIP_Strategy_VariableSelect=0
CPXPARAM_Network_NetFind=2
CPXPARAM_Network_Pricing=0
CPXPARAM_Parallel=1
CPXPARAM_Preprocessing_Aggregator=-1
CPXPARAM_Preprocessing_BoundStrength=-1
CPXPARAM_Preprocessing_CoeffReduce=-1
CPXPARAM_Preprocessing_Dependency=-1
CPXPARAM_Preprocessing_Dual=0
CPXPARAM_Preprocessing_Fill=10
CPXPARAM_Preprocessing_NumPass=-1
CPXPARAM_Preprocessing_Presolve=1
CPXPARAM_Preprocessing_QPMakePSD=1
CPXPARAM_Preprocessing_Reduce=3
CPXPARAM_Preprocessing_Relax=-1
CPXPARAM_Preprocessing_RepeatPresolve=-1
CPXPARAM_Preprocessing_Symmetry=-1
CPXPARAM_Read_Scale=0
CPXPARAM_Sifting_Algorithm=0
CPXPARAM_Simplex_Crash=1
CPXPARAM_Simplex_DGradient=0
CPXPARAM_Simplex_Limits_Perturbation=0
CPXPARAM_Simplex_Limits_Singularity=10
CPXPARAM_Simplex_PGradient=0
CPXPARAM_Simplex_Pricing=0
CPXPARAM_Simplex_Refactor=0
ObjectiveValue=8.84
Gap=8.84
UpperBound=181
LowerBound=165
SolverRuntimeSeconds=10.0052
TimeEvaluated=1264
MipStartUsed=1
UsedMipStartId=3
ProducedMipStart=0
EndConfiguration
Configuration:
CPXPARAM_Advance=1
CPXPARAM_Barrier_Algorithm=0
CPXPARAM_Barrier_ColNonzeros=0
CPXPARAM_Barrier_Crossover=0
CPXPARAM_Barrier_Limits_Corrections=-1
CPXPARAM_Barrier_Ordering=0
CPXPARAM_Barrier_StartAlg=1
CPXPARAM_Emphasis_MIP=2
CPXPARAM_Emphasis_Memory=0
CPXPARAM_Emphasis_Numerical=0
CPXPARAM_Feasopt_Mode=0
CPXPARAM_LPMethod=0
CPXPARAM_MIP_Cuts_Cliques=0
CPXPARAM_MIP_Cuts_Covers=0
CPXPARAM_MIP_Cuts_Disjunctive=0
CPXPARAM_MIP_Cuts_FlowCovers=0
CPXPARAM_MIP_Cuts_GUBCovers=0
CPXPARAM_MIP_Cuts_Gomory=0
CPXPARAM_MIP_Cuts_Implied=0
CPXPARAM_MIP_Cuts_MIRCut=0
CPXPARAM_MIP_Cuts_PathCut=0
CPXPARAM_MIP_Limits_AggForCut=3
CPXPARAM_MIP_Limits_CutPasses=0
CPXPARAM_MIP_Limits_CutsFactor=-1
CPXPARAM_MIP_Limits_GomoryCand=50
CPXPARAM_MIP_Limits_GomoryPass=0
CPXPARAM_MIP_Limits_Nodes=9223372036800000000
CPXPARAM_MIP_Limits_ProbeTime=1e+75
CPXPARAM_MIP_Limits_RepairTries=0
CPXPARAM_MIP_Limits_StrongCand=10
CPXPARAM_MIP_Limits_StrongIt=0
CPXPARAM_MIP_OrderType=0
CPXPARAM_MIP_Strategy_BBInterval=7
CPXPARAM_MIP_Strategy_Branch=0
CPXPARAM_MIP_Strategy_Dive=1
CPXPARAM_MIP_Strategy_File=1
CPXPARAM_MIP_Strategy_HeuristicFreq=0
CPXPARAM_MIP_Strategy_LBHeur=0
CPXPARAM_MIP_Strategy_NodeSelect=1
CPXPARAM_MIP_Strategy_Order=1
CPXPARAM_MIP_Strategy_PresolveNode=0
CPXPARAM_MIP_Strategy_Probe=0
CPXPARAM_MIP_Strategy_RINSHeur=0
CPXPARAM_MIP_Strategy_StartAlgorithm=0
CPXPARAM_MIP_Strategy_SubAlgorithm=0
CPXPARAM_MIP_Strategy_VariableSelect=0
CPXPARAM_Network_NetFind=2
CPXPARAM_Network_Pricing=0
CPXPARAM_Parallel=1
CPXPARAM_Preprocessing_Aggregator=-1
CPXPARAM_Preprocessing_BoundStrength=-1
CPXPARAM_Preprocessing_CoeffReduce=-1
CPXPARAM_Preprocessing_Dependency=-1
CPXPARAM_Preprocessing_Dual=0
CPXPARAM_Preprocessing_Fill=10
CPXPARAM_Preprocessing_NumPass=-1
CPXPARAM_Preprocessing_Presolve=1
CPXPARAM_Preprocessing_QPMakePSD=1
CPXPARAM_Preprocessing_Reduce=3
CPXPARAM_Preprocessing_Relax=-1
CPXPARAM_Preprocessing_RepeatPresolve=-1
CPXPARAM_Preprocessing_Symmetry=-1
CPXPARAM_Read_Scale=0
CPXPARAM_Sifting_Algorithm=0
CPXPARAM_Simplex_Crash=1
CPXPARAM_Simplex_DGradient=0
CPXPARAM_Simplex_Limits_Perturbation=0
CPXPARAM_Simplex_Limits_Singularity=10
CPXPARAM_Simplex_PGradient=0
CPXPARAM_Simplex_Pricing=0
CPXPARAM_Simplex_Refactor=0
ObjectiveValue=8.29
Gap=8.29
UpperBound=181
LowerBound=166
SolverRuntimeSeconds=10.0045
TimeEvaluated=1274
MipStartUsed=1
UsedMipStartId=3
ProducedMipStart=0
EndConfiguration
Configuration:
CPXPARAM_Advance=1
CPXPARAM_Barrier_Algorithm=0
CPXPARAM_Barrier_ColNonzeros=0
CPXPARAM_Barrier_Crossover=0
CPXPARAM_Barrier_Limits_Corrections=-1
CPXPARAM_Barrier_Ordering=0
CPXPARAM_Barrier_StartAlg=1
CPXPARAM_Emphasis_MIP=2
CPXPARAM_Emphasis_Memory=0
CPXPARAM_Emphasis_Numerical=0
CPXPARAM_Feasopt_Mode=0
CPXPARAM_LPMethod=0
CPXPARAM_MIP_Cuts_Cliques=0
CPXPARAM_MIP_Cuts_Covers=0
CPXPARAM_MIP_Cuts_Disjunctive=0
CPXPARAM_MIP_Cuts_FlowCovers=0
CPXPARAM_MIP_Cuts_GUBCovers=0
CPXPARAM_MIP_Cuts_Gomory=0
CPXPARAM_MIP_Cuts_Implied=0
CPXPARAM_MIP_Cuts_MIRCut=0
CPXPARAM_MIP_Cuts_PathCut=0
CPXPARAM_MIP_Limits_AggForCut=3
CPXPARAM_MIP_Limits_CutPasses=0
CPXPARAM_MIP_Limits_CutsFactor=-1
CPXPARAM_MIP_Limits_GomoryCand=25
CPXPARAM_MIP_Limits_GomoryPass=0
CPXPARAM_MIP_Limits_Nodes=9223372036800000000
CPXPARAM_MIP_Limits_ProbeTime=1e+75
CPXPARAM_MIP_Limits_RepairTries=0
CPXPARAM_MIP_Limits_StrongCand=10
CPXPARAM_MIP_Limits_StrongIt=0
CPXPARAM_MIP_OrderType=0
CPXPARAM_MIP_Strategy_BBInterval=7
CPXPARAM_MIP_Strategy_Branch=0
CPXPARAM_MIP_Strategy_Dive=0
CPXPARAM_MIP_Strategy_File=1
CPXPARAM_MIP_Strategy_HeuristicFreq=0
CPXPARAM_MIP_Strategy_LBHeur=0
CPXPARAM_MIP_Strategy_NodeSelect=1
CPXPARAM_MIP_Strategy_Order=1
CPXPARAM_MIP_Strategy_PresolveNode=0
CPXPARAM_MIP_Strategy_Probe=0
CPXPARAM_MIP_Strategy_RINSHeur=0
CPXPARAM_MIP_Strategy_StartAlgorithm=0
CPXPARAM_MIP_Strategy_SubAlgorithm=0
CPXPARAM_MIP_Strategy_VariableSelect=0
CPXPARAM_Network_NetFind=2
CPXPARAM_Network_Pricing=0
CPXPARAM_Parallel=1
CPXPARAM_Preprocessing_Aggregator=-1
CPXPARAM_Preprocessing_BoundStrength=-1
CPXPARAM_Preprocessing_CoeffReduce=-1
CPXPARAM_Preprocessing_Dependency=-1
CPXPARAM_Preprocessing_Dual=0
CPXPARAM_Preprocessing_Fill=10
CPXPARAM_Preprocessing_NumPass=-1
CPXPARAM_Preprocessing_Presolve=1
CPXPARAM_Preprocessing_QPMakePSD=1
CPXPARAM_Preprocessing_Reduce=3
CPXPARAM_Preprocessing_Relax=-1
CPXPARAM_Preprocessing_RepeatPresolve=-1
CPXPARAM_Preprocessing_Symmetry=-1
CPXPARAM_Read_Scale=0
CPXPARAM_Sifting_Algorithm=0
CPXPARAM_Simplex_Crash=1
CPXPARAM_Simplex_DGradient=0
CPXPARAM_Simplex_Limits_Perturbation=0
CPXPARAM_Simplex_Limits_Singularity=10
CPXPARAM_Simplex_PGradient=0
CPXPARAM_Simplex_Pricing=0
CPXPARAM_Simplex_Refactor=0
ObjectiveValue=8.16
Gap=8.16
UpperBound=181
LowerBound=166.236
SolverRuntimeSeconds=10.0057
TimeEvaluated=1284
MipStartUsed=1
UsedMipStartId=3
ProducedMipStart=0
EndConfiguration
